p tw 25 63
0 1
0 12
0 8
0 19
0 18
1 7
1 11
1 18
1 2
1 16
2 3
2 14
2 5
2 19
2 12
2 16
3 6
3 9
3 23
3 24
3 20
4 5
4 8
4 22
4 24
4 10
4 17
6 9
6 21
6 8
6 12
7 15
7 19
7 21
8 14
8 17
9 15
9 18
9 12
9 24
10 11
10 16
11 16
11 15
11 19
12 16
12 20
12 13
13 14
13 19
13 21
14 17
14 18
15 20
15 22
15 19
15 23
16 23
17 18
17 21
20 24
20 23
21 24
